set VV := 0 1 2 3 4 5 6 7 8 9 10 ;
set VS := 0 1 2 3 4 5 6 7 8 9 10 11 12 13 14 15 16 17 18 19 20 21 22 23 24 25 26 ;
param cv := 
0 23
1 25
2 15
3 23
4 22
5 13
6 12
7 21
8 12
9 16
10 22
;
param cs := 
0 35
1 39
2 26
3 22
4 28
5 25
6 24
7 22
8 33
9 34
10 25
11 38
12 24
13 25
14 39
15 26
16 26
17 30
18 36
19 29
20 25
21 31
22 35
23 26
24 27
25 36
26 35
;
param bv:	 0 1 2 3 4 5 6 7 8 9 10 := 
		0 0 0 0 0 0 19 0 13 17 0 0 
		1 0 0 0 0 0 15 0 0 0 0 0 
		2 0 0 0 0 0 0 0 0 18 18 0 
		3 0 0 0 0 0 0 10 0 0 0 0 
		4 0 0 0 0 0 0 16 0 11 0 0 
		5 0 0 0 0 0 0 0 0 0 0 17 
		6 0 0 0 0 0 0 0 0 0 0 0 
		7 0 0 0 0 0 0 0 0 0 0 0 
		8 0 0 0 0 0 0 0 0 0 0 0 
		9 0 0 0 0 0 0 0 0 0 0 11 
		10 0 0 0 0 0 0 0 0 0 0 0 
;
param bs:	 0 1 2 3 4 5 6 7 8 9 10 11 12 13 14 15 16 17 18 19 20 21 22 23 24 25 26 := 
		0 0 0 0 0 0 0 0 0 0 0 0 0 0 0 0 0 0 0 0 0 33 0 0 0 0 0 0 
		1 0 0 26 0 0 0 0 0 0 0 0 0 0 0 0 0 0 0 0 0 0 0 0 0 0 0 0 
		2 0 26 0 0 0 0 0 0 0 0 0 0 0 0 29 0 0 0 0 0 0 0 0 0 0 0 0 
		3 0 0 0 0 0 0 0 0 33 22 0 0 0 0 0 0 0 0 0 0 0 0 0 0 0 26 0 
		4 0 0 0 0 0 0 0 0 0 0 0 0 0 0 0 0 0 24 0 0 0 0 0 0 0 28 0 
		5 0 0 0 0 0 0 0 0 40 0 0 0 0 0 0 0 0 0 0 0 0 0 23 0 0 0 0 
		6 0 0 0 0 0 0 0 0 0 20 0 0 0 0 0 0 0 0 0 0 0 0 0 0 0 0 0 
		7 0 0 0 0 0 0 0 0 0 32 32 0 38 0 0 0 0 0 0 0 0 0 25 0 0 0 0 
		8 0 0 0 33 0 40 0 0 0 0 0 0 0 0 0 0 0 0 0 0 0 0 21 0 0 0 0 
		9 0 0 0 22 0 0 20 32 0 0 0 0 0 0 37 0 0 0 0 0 0 0 0 0 0 0 0 
		10 0 0 0 0 0 0 0 32 0 0 0 0 0 0 0 0 0 0 0 0 0 0 0 0 0 0 0 
		11 0 0 0 0 0 0 0 0 0 0 0 0 0 26 38 0 0 0 0 27 0 0 0 0 0 0 0 
		12 0 0 0 0 0 0 0 38 0 0 0 0 0 32 0 0 0 0 0 0 0 0 0 0 0 0 0 
		13 0 0 0 0 0 0 0 0 0 0 0 26 32 0 0 0 0 0 0 0 0 0 0 0 0 0 0 
		14 0 0 29 0 0 0 0 0 0 37 0 38 0 0 0 32 0 0 0 0 0 0 0 0 33 0 0 
		15 0 0 0 0 0 0 0 0 0 0 0 0 0 0 32 0 0 0 0 0 0 0 0 0 0 0 0 
		16 0 0 0 0 0 0 0 0 0 0 0 0 0 0 0 0 0 0 0 0 0 0 30 0 0 0 0 
		17 0 0 0 0 24 0 0 0 0 0 0 0 0 0 0 0 0 0 0 0 0 0 0 0 0 0 0 
		18 0 0 0 0 0 0 0 0 0 0 0 0 0 0 0 0 0 0 0 0 0 40 0 0 0 0 0 
		19 0 0 0 0 0 0 0 0 0 0 0 27 0 0 0 0 0 0 0 0 0 0 0 26 0 37 39 
		20 33 0 0 0 0 0 0 0 0 0 0 0 0 0 0 0 0 0 0 0 0 35 0 0 0 0 0 
		21 0 0 0 0 0 0 0 0 0 0 0 0 0 0 0 0 0 0 40 0 35 0 40 0 0 0 0 
		22 0 0 0 0 0 23 0 25 21 0 0 0 0 0 0 0 30 0 0 0 0 40 0 0 0 0 0 
		23 0 0 0 0 0 0 0 0 0 0 0 0 0 0 0 0 0 0 0 26 0 0 0 0 33 0 31 
		24 0 0 0 0 0 0 0 0 0 0 0 0 0 0 33 0 0 0 0 0 0 0 0 33 0 0 0 
		25 0 0 0 26 28 0 0 0 0 0 0 0 0 0 0 0 0 0 0 37 0 0 0 0 0 0 0 
		26 0 0 0 0 0 0 0 0 0 0 0 0 0 0 0 0 0 0 0 39 0 0 0 31 0 0 0 
;
